
List of user-set options:

                                    Name   Value                used
                        file_print_level = 5                     yes
                   hessian_approximation = limited-memory        yes
                           linear_solver = mumps                 yes
                             output_file = IPOPT.out             yes
                             print_level = 0                     yes
                      print_user_options = yes                   yes
                                      sb = yes                   yes
This is Ipopt version 3.14.13, running with linear solver MUMPS 5.2.1.

Number of nonzeros in equality constraint Jacobian...:        0
Number of nonzeros in inequality constraint Jacobian.:        4
Number of nonzeros in Lagrangian Hessian.............:        0

Total number of variables............................:        2
                     variables with only lower bounds:        0
                variables with lower and upper bounds:        2
                     variables with only upper bounds:        0
Total number of equality constraints.................:        0
Total number of inequality constraints...............:        2
        inequality constraints with only lower bounds:        0
   inequality constraints with lower and upper bounds:        0
        inequality constraints with only upper bounds:        0

iter    objective    inf_pr   inf_du lg(mu)  ||d||  lg(rg) alpha_du alpha_pr  ls
   0  2.0000000e+00 0.00e+00 1.00e+00   0.0 0.00e+00    -  0.00e+00 0.00e+00   0
   1  3.3909968e-01 0.00e+00 6.27e-01  -5.3 1.41e+00    -  7.32e-01 1.00e+00f  1
   2  7.0510010e-04 0.00e+00 1.80e-02  -1.6 3.93e-01    -  9.23e-01 1.00e+00f  1
   3  7.1723071e-10 0.00e+00 3.37e-06  -3.7 1.88e-02    -  9.96e-01 1.00e+00f  1
   4  4.9948041e-13 0.00e+00 1.03e-08  -9.5 1.94e-05    -  1.00e+00 1.00e+00h  1
   5  5.0000000e-13 0.00e+00 2.48e-23 -11.0 2.60e-10    -  1.00e+00 1.00e+00h  1

Number of Iterations....: 5

                                   (scaled)                 (unscaled)
Objective...............:   4.9999999999645277e-13    4.9999999999645277e-13
Dual infeasibility......:   2.4812187202323045e-23    2.4812187202323045e-23
Constraint violation....:   0.0000000000000000e+00    0.0000000000000000e+00
Variable bound violation:   0.0000000000000000e+00    0.0000000000000000e+00
Complementarity.........:   1.0000010605894100e-11    1.0000010605894100e-11
Overall NLP error.......:   1.0000010605894100e-11    1.0000010605894100e-11


Number of objective function evaluations             = 6
Number of objective gradient evaluations             = 6
Number of equality constraint evaluations            = 0
Number of inequality constraint evaluations          = 6
Number of equality constraint Jacobian evaluations   = 0
Number of inequality constraint Jacobian evaluations = 6
Number of Lagrangian Hessian evaluations             = 0
Total seconds in IPOPT                               = 0.005

EXIT: Optimal Solution Found.
